&GLOBAL
   PROJECT_NAME diamond_PDOS
   RUN_TYPE ENERGY
   PRINT_LEVEL MEDIUM
&END GLOBAL

&FORCE_EVAL
  METHOD QS
  STRESS_TENSOR NONE
  &DFT
      POTENTIAL_FILE_NAME GTH_POTENTIALS
      BASIS_SET_FILE_NAME BASIS_MOLOPT
      &QS 
         EPS_DEFAULT 1e-10
         EXTRAPOLATION ASPC
         METHOD GPW
      &END QS
      &MGRID
         NGRIDS 4
         CUTOFF 100 
         REL_CUTOFF 60
      &END MGRID
       &SCF
         ADDED_MOS 50
         &DIAGONALIZATION
            ALGORITHM STANDARD
            EPS_ADAPT 0.01
         &END DIAGONALIZATION
         &SMEAR  ON
            METHOD FERMI_DIRAC
            ELECTRONIC_TEMPERATURE [K] 300
         &END SMEAR
         &MIXING
            METHOD BROYDEN_MIXING
            ALPHA 0.2
            BETA 1.5
            NBROYDEN 8
         &END MIXING
      &END SCF   
      &XC
          &XC_FUNCTIONAL PBE
          &END XC_FUNCTIONAL
      &END XC
      &PRINT
          &PDOS
              NLUMO -1 
	      FILENAME ./diamond_pdos	      
          &END     
      &END PRINT
  &END DFT

  &SUBSYS
    &CELL
       A 3.7 0.0000 0.0000
       B 0.00000000 3.7 0.00000
       C 0.00000000 0.000000 3.7
       PERIODIC XYZ
       MULTIPLE_UNIT_CELL 4 4 4 
    &END CELL
    &TOPOLOGY
      MULTIPLE_UNIT_CELL 4 4 4
      COORD_FILE_NAME diamond_fd3m.xyz
      COORD_FILE_FORMAT xyz
    &END TOPOLOGY
    &KIND C
       POTENTIAL GTH-PBE
       BASIS_SET DZVP-MOLOPT-SR-GTH
    &END KIND
  &END SUBSYS
&END FORCE_EVAL
