 # Version information for this restart file 
 # current date 2020-05-19 08:34:43.887
 # current working dir /auto.eland/home/sim03/Documents/SimPhys/Summer/2/cp2k/MONOMER_MD_TEST_300K
 # Program compiled at                             Thu May  9 16:52:28 CEST 2019
 # Program compiled on                                                      cip0
 # Program compiled for                                                     icp2
 # Source code revision number                                         svn:18091
 &GLOBAL
   PRINT_LEVEL  LOW
   PROJECT_NAME water_dimer_md
   RUN_TYPE  MD
 &END GLOBAL
 &MOTION
   &MD
     ENSEMBLE  NVT
     STEPS  2000
     TIMESTEP     4.9999999999999994E-01
     STEP_START_VAL  480
     TIME_START_VAL     2.3999999999999838E+02
     ECONS_START_VAL    -1.7217842475487966E+01
     TEMPERATURE     3.0000000000000000E+02
     COMVEL_TOL     9.9999999999999995E-07
     ANGVEL_TOL     9.9999999999999995E-07
     ANGVEL_ZERO  T
     &THERMOSTAT
       TYPE  CSVR
       REGION  GLOBAL
       &CSVR
         TIMECON     4.9999999999999993E+01
         &THERMOSTAT_ENERGY
              -6.4664750367105419E-03
         &END THERMOSTAT_ENERGY
         &RNG_INIT
Wiener process for Thermostat # 1        1 F T F   1.0429493532168106E+00        3623225987.0         915489062.0         222526339.0        2888275735.0        2755672054.0          60955316.0             12345.0             12345.0             12345.0             12345.0             12345.0             12345.0             12345.0             12345.0             12345.0             12345.0             12345.0             12345.0
         &END RNG_INIT
       &END CSVR
     &END THERMOSTAT
     &AVERAGES  T
       &RESTART_AVERAGES
         ITIMES_START  1
         AVECPU     6.6306075285930859E+01
         AVEHUGONIOT     0.0000000000000000E+00
         AVETEMP_BARO     0.0000000000000000E+00
         AVEPOT    -1.7216572279029098E+01
         AVEKIN     2.9746590180283502E-03
         AVETEMP     6.2621460269948000E+02
         AVEKIN_QM     0.0000000000000000E+00
         AVETEMP_QM     0.0000000000000000E+00
         AVEVOL     2.2775629217928825E+04
         AVECELL_A     2.8345891993284951E+01
         AVECELL_B     2.8345891993284951E+01
         AVECELL_C     2.8345891993284951E+01
         AVEALPHA     9.0000000000000099E+01
         AVEBETA     9.0000000000000099E+01
         AVEGAMMA     9.0000000000000099E+01
         AVE_ECONS     3.7002536655767746E+00
         AVE_PRESS     0.0000000000000000E+00
         AVE_PXX     0.0000000000000000E+00
       &END RESTART_AVERAGES
     &END AVERAGES
   &END MD
 &END MOTION
 &FORCE_EVAL
   METHOD  QS
   STRESS_TENSOR  NONE
   &DFT
     BASIS_SET_FILE_NAME ./BASIS_MOLOPT
     POTENTIAL_FILE_NAME ./GTH_POTENTIALS
     &SCF
       EPS_SCF     9.9999999999999995E-07
       SCF_GUESS  ATOMIC
       &OT  T
         MINIMIZER  DIIS
         PRECONDITIONER  FULL_ALL
       &END OT
       &OUTER_SCF  T
         EPS_SCF     9.9999999999999995E-07
       &END OUTER_SCF
       &PRINT
         &RESTART  OFF
         &END RESTART
       &END PRINT
     &END SCF
     &QS
       EPS_DEFAULT     1.0000000000000000E-10
       EXTRAPOLATION  ASPC
       METHOD  GPW
     &END QS
     &MGRID
       NGRIDS  4
       CUTOFF     3.0000000000000000E+02
       REL_CUTOFF     6.0000000000000000E+01
     &END MGRID
     &XC
       DENSITY_CUTOFF     1.0000000000000000E-10
       GRADIENT_CUTOFF     1.0000000000000000E-10
       TAU_CUTOFF     1.0000000000000000E-10
       &XC_FUNCTIONAL  NO_SHORTCUT
         &PBE  T
         &END PBE
       &END XC_FUNCTIONAL
       &VDW_POTENTIAL
         POTENTIAL_TYPE  PAIR_POTENTIAL
         &PAIR_POTENTIAL
           TYPE  DFTD3
           PARAMETER_FILE_NAME ./dftd3.dat
           REFERENCE_FUNCTIONAL PBE
           CALCULATE_C9_TERM  T
         &END PAIR_POTENTIAL
       &END VDW_POTENTIAL
     &END XC
     &POISSON
       POISSON_SOLVER  WAVELET
       PERIODIC  NONE
     &END POISSON
     &PRINT
       &MOMENTS  SILENT
         FILENAME =water_dimer_dipole.out
         PERIODIC  F
       &END MOMENTS
     &END PRINT
   &END DFT
   &SUBSYS
     &CELL
       A     1.5000000000000002E+01    0.0000000000000000E+00    0.0000000000000000E+00
       B     0.0000000000000000E+00    1.5000000000000002E+01    0.0000000000000000E+00
       C     0.0000000000000000E+00    0.0000000000000000E+00    1.5000000000000002E+01
       PERIODIC  NONE
       MULTIPLE_UNIT_CELL  1 1 1
     &END CELL
     &COORD
H    7.6927028984700012E+00    8.2186959596105957E+00    7.2152438902630998E+00
H    7.6672346265584377E+00    6.8021628270278436E+00    7.1771636033793316E+00
O    7.3389354423489301E+00    7.4882130033664165E+00    7.7691637457280747E+00
     &END COORD
     &VELOCITY
          -4.2136128744894147E-04    9.3246689621309653E-04    7.6278177373987873E-04
          -9.7000022942342530E-04    8.4664078037076897E-05    1.6381194822724901E-03
           8.7653844976457452E-05   -6.4077840055609564E-05   -1.5125344775335995E-04
     &END VELOCITY
     &KIND H
       BASIS_SET DZVP-MOLOPT-SR-GTH
       POTENTIAL GTH-PBE-q1
       &POTENTIAL
 1
  0.2000000000000000E+00 2 -0.4178900440000000E+01  0.7244633100000000E+00
 0
         # Potential name:  GTH-PBE-Q1  for symbol:  H
         # Potential read from the potential filename: ./GTH_POTENTIALS
       &END POTENTIAL
     &END KIND
     &KIND C
       BASIS_SET DZVP-MOLOPT-SR-GTH
       POTENTIAL GTH-PBE-q4
     &END KIND
     &KIND O
       BASIS_SET DZVP-MOLOPT-SR-GTH
       POTENTIAL GTH-PBE-q6
       &POTENTIAL
 2 4
  0.2445543000000000E+00 2 -0.1666721480000000E+02  0.2487311320000000E+01
 2
  0.2209559200000000E+00 1  0.1833745811000000E+02
  0.2113324700000000E+00 0
         # Potential name:  GTH-PBE-Q6  for symbol:  O
         # Potential read from the potential filename: ./GTH_POTENTIALS
       &END POTENTIAL
     &END KIND
     &TOPOLOGY
       COORD_FILE_NAME water-monomer.xyz
       COORD_FILE_FORMAT  XYZ
       NUMBER_OF_ATOMS  3
       MULTIPLE_UNIT_CELL  1 1 1
       &CENTER_COORDINATES  T
       &END CENTER_COORDINATES
     &END TOPOLOGY
   &END SUBSYS
 &END FORCE_EVAL
