 # Version information for this restart file 
 # current date 2020-05-25 21:05:56.423
 # current working dir /auto.eland/home/sim03/Documents/SimPhys/Summer/2/cp2k/MONOMER_MD_TEST_300K
 # Program compiled at                             Thu May  9 16:52:28 CEST 2019
 # Program compiled on                                                      cip0
 # Program compiled for                                                     icp2
 # Source code revision number                                         svn:18091
 &GLOBAL
   PRINT_LEVEL  LOW
   PROJECT_NAME water_dimer_md
   RUN_TYPE  MD
 &END GLOBAL
 &MOTION
   &MD
     ENSEMBLE  NVT
     STEPS  8000
     TIMESTEP     4.9999999999999994E-01
     STEP_START_VAL  9460
     TIME_START_VAL     4.7299999999994934E+03
     ECONS_START_VAL    -1.7217842475487963E+01
     TEMPERATURE     3.0000000000000000E+02
     COMVEL_TOL     9.9999999999999995E-07
     ANGVEL_TOL     9.9999999999999995E-07
     ANGVEL_ZERO  T
     &THERMOSTAT
       TYPE  CSVR
       REGION  GLOBAL
       &CSVR
         TIMECON     4.9999999999999993E+01
         &THERMOSTAT_ENERGY
               7.5132226868982648E-04
         &END THERMOSTAT_ENERGY
         &RNG_INIT
Wiener process for Thermostat # 1        1 F T F  -1.9717128513830522E+00        3612447985.0        3208067188.0        2052239008.0         732329145.0        1705859489.0        4212708565.0             12345.0             12345.0             12345.0             12345.0             12345.0             12345.0             12345.0             12345.0             12345.0             12345.0             12345.0             12345.0
         &END RNG_INIT
       &END CSVR
     &END THERMOSTAT
     &AVERAGES  T
       &RESTART_AVERAGES
         ITIMES_START  1
         AVECPU     3.0519367652611713E+01
         AVEHUGONIOT     0.0000000000000000E+00
         AVETEMP_BARO     0.0000000000000000E+00
         AVEPOT    -1.7218300773779937E+01
         AVEKIN     1.5967244990946054E-03
         AVETEMP     3.3613674433306795E+02
         AVEKIN_QM     0.0000000000000000E+00
         AVETEMP_QM     0.0000000000000000E+00
         AVEVOL     2.2775629217925038E+04
         AVECELL_A     2.8345891993286813E+01
         AVECELL_B     2.8345891993286813E+01
         AVECELL_C     2.8345891993286813E+01
         AVEALPHA     9.0000000000000099E+01
         AVEBETA     9.0000000000000099E+01
         AVEGAMMA     9.0000000000000099E+01
         AVE_ECONS     3.9177926329408015E+00
         AVE_PRESS     0.0000000000000000E+00
         AVE_PXX     0.0000000000000000E+00
       &END RESTART_AVERAGES
     &END AVERAGES
   &END MD
 &END MOTION
 &FORCE_EVAL
   METHOD  QS
   STRESS_TENSOR  NONE
   &DFT
     BASIS_SET_FILE_NAME ./BASIS_MOLOPT
     POTENTIAL_FILE_NAME ./GTH_POTENTIALS
     &SCF
       EPS_SCF     9.9999999999999995E-07
       SCF_GUESS  ATOMIC
       &OT  T
         MINIMIZER  DIIS
         PRECONDITIONER  FULL_ALL
       &END OT
       &OUTER_SCF  T
         EPS_SCF     9.9999999999999995E-07
       &END OUTER_SCF
       &PRINT
         &RESTART  OFF
         &END RESTART
       &END PRINT
     &END SCF
     &QS
       EPS_DEFAULT     1.0000000000000000E-10
       EXTRAPOLATION  ASPC
       METHOD  GPW
     &END QS
     &MGRID
       NGRIDS  4
       CUTOFF     3.0000000000000000E+02
       REL_CUTOFF     6.0000000000000000E+01
     &END MGRID
     &XC
       DENSITY_CUTOFF     1.0000000000000000E-10
       GRADIENT_CUTOFF     1.0000000000000000E-10
       TAU_CUTOFF     1.0000000000000000E-10
       &XC_FUNCTIONAL  NO_SHORTCUT
         &PBE  T
         &END PBE
       &END XC_FUNCTIONAL
       &VDW_POTENTIAL
         POTENTIAL_TYPE  PAIR_POTENTIAL
         &PAIR_POTENTIAL
           TYPE  DFTD3
           PARAMETER_FILE_NAME ./dftd3.dat
           REFERENCE_FUNCTIONAL PBE
           CALCULATE_C9_TERM  T
         &END PAIR_POTENTIAL
       &END VDW_POTENTIAL
     &END XC
     &POISSON
       POISSON_SOLVER  WAVELET
       PERIODIC  NONE
     &END POISSON
     &REAL_TIME_PROPAGATION
       INITIAL_WFN  SCF_WFN
     &END REAL_TIME_PROPAGATION
     &PRINT
       &MOMENTS  SILENT
         FILENAME =water_dimer_dipole.out
         PERIODIC  F
       &END MOMENTS
     &END PRINT
   &END DFT
   &SUBSYS
     &CELL
       A     1.5000000000000005E+01    0.0000000000000000E+00    0.0000000000000000E+00
       B     0.0000000000000000E+00    1.5000000000000005E+01    0.0000000000000000E+00
       C     0.0000000000000000E+00    0.0000000000000000E+00    1.5000000000000005E+01
       PERIODIC  NONE
       MULTIPLE_UNIT_CELL  1 1 1
     &END CELL
     &COORD
H    7.6463942747740345E+00    8.2879862094530754E+00    7.2716293533236733E+00
H    7.6289191366078901E+00    6.7334972040459249E+00    7.2987628838808742E+00
O    7.3124618263372714E+00    7.4981961415543426E+00    7.7812801782478633E+00
     &END COORD
     &VELOCITY
          -3.1306139767887107E-04   -5.1174821141949120E-04    4.7672692603794811E-04
          -9.3546520064285841E-05   -1.7356258526505628E-05    1.4283935638280005E-04
           2.5560607931833478E-05    3.3940406797100037E-05   -3.8972718546415387E-05
     &END VELOCITY
     &KIND H
       BASIS_SET DZVP-MOLOPT-SR-GTH
       POTENTIAL GTH-PBE-q1
       &POTENTIAL
 1
  0.2000000000000000E+00 2 -0.4178900440000000E+01  0.7244633100000000E+00
 0
         # Potential name:  GTH-PBE-Q1  for symbol:  H
         # Potential read from the potential filename: ./GTH_POTENTIALS
       &END POTENTIAL
     &END KIND
     &KIND C
       BASIS_SET DZVP-MOLOPT-SR-GTH
       POTENTIAL GTH-PBE-q4
     &END KIND
     &KIND O
       BASIS_SET DZVP-MOLOPT-SR-GTH
       POTENTIAL GTH-PBE-q6
       &POTENTIAL
 2 4
  0.2445543000000000E+00 2 -0.1666721480000000E+02  0.2487311320000000E+01
 2
  0.2209559200000000E+00 1  0.1833745811000000E+02
  0.2113324700000000E+00 0
         # Potential name:  GTH-PBE-Q6  for symbol:  O
         # Potential read from the potential filename: ./GTH_POTENTIALS
       &END POTENTIAL
     &END KIND
     &TOPOLOGY
       COORD_FILE_NAME water-monomer.xyz
       COORD_FILE_FORMAT  XYZ
       NUMBER_OF_ATOMS  3
       MULTIPLE_UNIT_CELL  1 1 1
       &CENTER_COORDINATES  T
       &END CENTER_COORDINATES
     &END TOPOLOGY
   &END SUBSYS
 &END FORCE_EVAL
 &EXT_RESTART
   RESTART_FILE_NAME 
   RESTART_COUNTERS  T
   RESTART_POS  T
   RESTART_VEL  T
   RESTART_RANDOMG  T
   RESTART_SHELL_POS  T
   RESTART_CORE_POS  T
   RESTART_OPTIMIZE_INPUT_VARIABLES  T
   RESTART_SHELL_VELOCITY  T
   RESTART_CORE_VELOCITY  T
   RESTART_BAROSTAT  T
   RESTART_BAROSTAT_THERMOSTAT  T
   RESTART_SHELL_THERMOSTAT  T
   RESTART_THERMOSTAT  T
   RESTART_CELL  T
   RESTART_METADYNAMICS  T
   RESTART_WALKERS  T
   RESTART_BAND  T
   RESTART_QMMM  T
   RESTART_CONSTRAINT  T
   RESTART_BSSE  T
   RESTART_DIMER  T
   RESTART_AVERAGES  T
   RESTART_RTP  T
   RESTART_PINT_POS  T
   RESTART_PINT_VEL  T
   RESTART_PINT_NOSE  T
   RESTART_PINT_GLE  T
   RESTART_HELIUM_POS  T
   RESTART_HELIUM_PERMUTATION  T
   RESTART_HELIUM_FORCE  T
   RESTART_HELIUM_RNG  T
 &END EXT_RESTART
