 # Version information for this restart file 
 # current date 2020-05-23 03:41:25.862
 # current working dir /auto.eland/home/sim03/Documents/SimPhys/Summer/2/cp2k/DIMER_MD_TEST_100K
 # Program compiled at                             Thu May  9 16:52:28 CEST 2019
 # Program compiled on                                                      cip0
 # Program compiled for                                                     icp2
 # Source code revision number                                         svn:18091
 &GLOBAL
   PRINT_LEVEL  LOW
   PROJECT_NAME water_dimer_md
   RUN_TYPE  MD
 &END GLOBAL
 &MOTION
   &MD
     ENSEMBLE  NVT
     STEPS  2000
     TIMESTEP     4.9999999999999994E-01
     STEP_START_VAL  2000
     TIME_START_VAL     9.9999999999998226E+02
     ECONS_START_VAL    -3.4445991952438838E+01
     TEMPERATURE     1.0000000000000001E+02
     COMVEL_TOL     9.9999999999999995E-07
     ANGVEL_TOL     9.9999999999999995E-07
     ANGVEL_ZERO  T
     &THERMOSTAT
       TYPE  CSVR
       REGION  GLOBAL
       &CSVR
         TIMECON     4.9999999999999993E+01
         &THERMOSTAT_ENERGY
              -3.5789867479578854E-03
         &END THERMOSTAT_ENERGY
         &RNG_INIT
Wiener process for Thermostat # 1        1 F T F  -5.4897408374466203E-02        1016369908.0        1304904130.0        1533682001.0        1187084177.0        3566289346.0          71223014.0             12345.0             12345.0             12345.0             12345.0             12345.0             12345.0             12345.0             12345.0             12345.0             12345.0             12345.0             12345.0
         &END RNG_INIT
       &END CSVR
     &END THERMOSTAT
     &AVERAGES  T
       &RESTART_AVERAGES
         ITIMES_START  1
         AVECPU     3.8278029674026953E+01
         AVEHUGONIOT     0.0000000000000000E+00
         AVETEMP_BARO     0.0000000000000000E+00
         AVEPOT    -3.4446289718172800E+01
         AVEKIN     1.9871643777854870E-03
         AVETEMP     1.0458268862008053E+02
         AVEKIN_QM     0.0000000000000000E+00
         AVETEMP_QM     0.0000000000000000E+00
         AVEVOL     2.2775629217929531E+04
         AVECELL_A     2.8345891993283821E+01
         AVECELL_B     2.8345891993283821E+01
         AVECELL_C     2.8345891993283821E+01
         AVEALPHA     9.0000000000000256E+01
         AVEBETA     9.0000000000000256E+01
         AVEGAMMA     9.0000000000000256E+01
         AVE_ECONS    -3.4884725260820808E+00
         AVE_PRESS     0.0000000000000000E+00
         AVE_PXX     0.0000000000000000E+00
       &END RESTART_AVERAGES
     &END AVERAGES
   &END MD
 &END MOTION
 &FORCE_EVAL
   METHOD  QS
   STRESS_TENSOR  NONE
   &DFT
     BASIS_SET_FILE_NAME ./BASIS_MOLOPT
     POTENTIAL_FILE_NAME ./GTH_POTENTIALS
     &SCF
       EPS_SCF     9.9999999999999995E-07
       SCF_GUESS  ATOMIC
       &OT  T
         MINIMIZER  DIIS
         PRECONDITIONER  FULL_ALL
       &END OT
       &OUTER_SCF  T
         EPS_SCF     9.9999999999999995E-07
       &END OUTER_SCF
       &PRINT
         &RESTART  OFF
         &END RESTART
       &END PRINT
     &END SCF
     &QS
       EPS_DEFAULT     1.0000000000000000E-10
       EXTRAPOLATION  ASPC
       METHOD  GPW
     &END QS
     &MGRID
       NGRIDS  4
       CUTOFF     3.0000000000000000E+02
       REL_CUTOFF     6.0000000000000000E+01
     &END MGRID
     &XC
       DENSITY_CUTOFF     1.0000000000000000E-10
       GRADIENT_CUTOFF     1.0000000000000000E-10
       TAU_CUTOFF     1.0000000000000000E-10
       &XC_FUNCTIONAL  NO_SHORTCUT
         &PBE  T
         &END PBE
       &END XC_FUNCTIONAL
       &VDW_POTENTIAL
         POTENTIAL_TYPE  PAIR_POTENTIAL
         &PAIR_POTENTIAL
           TYPE  DFTD3
           PARAMETER_FILE_NAME ./dftd3.dat
           REFERENCE_FUNCTIONAL PBE
           CALCULATE_C9_TERM  T
         &END PAIR_POTENTIAL
       &END VDW_POTENTIAL
     &END XC
     &POISSON
       POISSON_SOLVER  WAVELET
       PERIODIC  NONE
     &END POISSON
     &REAL_TIME_PROPAGATION
       INITIAL_WFN  SCF_WFN
     &END REAL_TIME_PROPAGATION
     &PRINT
       &MOMENTS  SILENT
         FILENAME =water_dimer_dipole.out
         PERIODIC  F
       &END MOMENTS
     &END PRINT
   &END DFT
   &SUBSYS
     &CELL
       A     1.5000000000000004E+01    0.0000000000000000E+00    0.0000000000000000E+00
       B     0.0000000000000000E+00    1.5000000000000004E+01    0.0000000000000000E+00
       C     0.0000000000000000E+00    0.0000000000000000E+00    1.5000000000000004E+01
       PERIODIC  NONE
       MULTIPLE_UNIT_CELL  1 1 1
     &END CELL
     &COORD
H    5.6171533716240845E+00    6.9496637794498790E+00    8.0436353687308770E+00
H    6.8221756433913043E+00    7.4761208914668913E+00    7.1915098455561983E+00
O    5.8341299571284688E+00    7.3482145469295643E+00    7.1923023024678470E+00
H    9.4805526997255605E+00    7.4775645978426208E+00    6.5962759651845744E+00
H    9.3979669171439806E+00    7.3031892270566106E+00    8.0885352035308191E+00
O    8.8044315159434472E+00    7.4007964120713314E+00    7.3160835165290727E+00
     &END COORD
     &VELOCITY
          -7.5091663465829067E-04   -7.5397082263372836E-04    2.3474404267601157E-04
          -1.0541719054470098E-05    2.6248663517398354E-04   -8.7935412749101964E-04
           3.6515742402302013E-05    3.2948266050502000E-05    1.1643487302903333E-05
          -5.3599942652132174E-04   -2.9475784133995092E-04   -4.5489869491921459E-04
           1.3684643096314712E-04    3.4554740686487217E-04   -4.7603793911890938E-04
           3.6601162193129503E-05   -5.1851163553268038E-06    8.7613769831790860E-05
     &END VELOCITY
     &KIND H
       BASIS_SET DZVP-MOLOPT-SR-GTH
       POTENTIAL GTH-PBE-q1
       &POTENTIAL
 1
  0.2000000000000000E+00 2 -0.4178900440000000E+01  0.7244633100000000E+00
 0
         # Potential name:  GTH-PBE-Q1  for symbol:  H
         # Potential read from the potential filename: ./GTH_POTENTIALS
       &END POTENTIAL
     &END KIND
     &KIND C
       BASIS_SET DZVP-MOLOPT-SR-GTH
       POTENTIAL GTH-PBE-q4
     &END KIND
     &KIND O
       BASIS_SET DZVP-MOLOPT-SR-GTH
       POTENTIAL GTH-PBE-q6
       &POTENTIAL
 2 4
  0.2445543000000000E+00 2 -0.1666721480000000E+02  0.2487311320000000E+01
 2
  0.2209559200000000E+00 1  0.1833745811000000E+02
  0.2113324700000000E+00 0
         # Potential name:  GTH-PBE-Q6  for symbol:  O
         # Potential read from the potential filename: ./GTH_POTENTIALS
       &END POTENTIAL
     &END KIND
     &TOPOLOGY
       COORD_FILE_NAME water-dimer.xyz
       COORD_FILE_FORMAT  XYZ
       NUMBER_OF_ATOMS  6
       MULTIPLE_UNIT_CELL  1 1 1
       &CENTER_COORDINATES  T
       &END CENTER_COORDINATES
     &END TOPOLOGY
   &END SUBSYS
 &END FORCE_EVAL
 &EXT_RESTART
   RESTART_FILE_NAME 
   RESTART_COUNTERS  T
   RESTART_POS  T
   RESTART_VEL  T
   RESTART_RANDOMG  T
   RESTART_SHELL_POS  T
   RESTART_CORE_POS  T
   RESTART_OPTIMIZE_INPUT_VARIABLES  T
   RESTART_SHELL_VELOCITY  T
   RESTART_CORE_VELOCITY  T
   RESTART_BAROSTAT  T
   RESTART_BAROSTAT_THERMOSTAT  T
   RESTART_SHELL_THERMOSTAT  T
   RESTART_THERMOSTAT  T
   RESTART_CELL  T
   RESTART_METADYNAMICS  T
   RESTART_WALKERS  T
   RESTART_BAND  T
   RESTART_QMMM  T
   RESTART_CONSTRAINT  T
   RESTART_BSSE  T
   RESTART_DIMER  T
   RESTART_AVERAGES  T
   RESTART_RTP  T
   RESTART_PINT_POS  T
   RESTART_PINT_VEL  T
   RESTART_PINT_NOSE  T
   RESTART_PINT_GLE  T
   RESTART_HELIUM_POS  T
   RESTART_HELIUM_PERMUTATION  T
   RESTART_HELIUM_FORCE  T
   RESTART_HELIUM_RNG  T
 &END EXT_RESTART
