 # Version information for this restart file 
 # current date 2020-05-24 03:26:52.034
 # current working dir /auto.eland/home/sim03/Documents/SimPhys/Summer/2/cp2k/DIMER_MD_TEST_300K
 # Program compiled at                             Thu May  9 16:52:28 CEST 2019
 # Program compiled on                                                      cip0
 # Program compiled for                                                     icp2
 # Source code revision number                                         svn:18091
 &GLOBAL
   PRINT_LEVEL  LOW
   PROJECT_NAME water_dimer_md
   RUN_TYPE  MD
 &END GLOBAL
 &MOTION
   &MD
     ENSEMBLE  NVT
     STEPS  8000
     TIMESTEP     4.9999999999999994E-01
     STEP_START_VAL  4000
     TIME_START_VAL     1.9999999999998513E+03
     ECONS_START_VAL    -3.4442191774026895E+01
     TEMPERATURE     3.0000000000000000E+02
     COMVEL_TOL     9.9999999999999995E-07
     ANGVEL_TOL     9.9999999999999995E-07
     ANGVEL_ZERO  T
     &THERMOSTAT
       TYPE  CSVR
       REGION  GLOBAL
       &CSVR
         TIMECON     4.9999999999999993E+01
         &THERMOSTAT_ENERGY
              -5.0274746126953828E-03
         &END THERMOSTAT_ENERGY
         &RNG_INIT
Wiener process for Thermostat # 1        1 F T F   8.3401400454685271E-01        1481061475.0        1083530959.0        1869272490.0        2506678272.0        2153454734.0        2442203834.0             12345.0             12345.0             12345.0             12345.0             12345.0             12345.0             12345.0             12345.0             12345.0             12345.0             12345.0             12345.0
         &END RNG_INIT
       &END CSVR
     &END THERMOSTAT
     &AVERAGES  T
       &RESTART_AVERAGES
         ITIMES_START  1
         AVECPU     3.5321271232676210E+01
         AVEHUGONIOT     0.0000000000000000E+00
         AVETEMP_BARO     0.0000000000000000E+00
         AVEPOT    -3.4442785063887662E+01
         AVEKIN     5.7126424855321236E-03
         AVETEMP     3.0065127824405096E+02
         AVEKIN_QM     0.0000000000000000E+00
         AVETEMP_QM     0.0000000000000000E+00
         AVEVOL     2.2775629217928010E+04
         AVECELL_A     2.8345891993285875E+01
         AVECELL_B     2.8345891993285875E+01
         AVECELL_C     2.8345891993285875E+01
         AVEALPHA     9.0000000000000284E+01
         AVEBETA     9.0000000000000284E+01
         AVEGAMMA     9.0000000000000284E+01
         AVE_ECONS     8.5919745381417156E-01
         AVE_PRESS     0.0000000000000000E+00
         AVE_PXX     0.0000000000000000E+00
       &END RESTART_AVERAGES
     &END AVERAGES
   &END MD
 &END MOTION
 &FORCE_EVAL
   METHOD  QS
   STRESS_TENSOR  NONE
   &DFT
     BASIS_SET_FILE_NAME ./BASIS_MOLOPT
     POTENTIAL_FILE_NAME ./GTH_POTENTIALS
     &SCF
       EPS_SCF     9.9999999999999995E-07
       SCF_GUESS  ATOMIC
       &OT  T
         MINIMIZER  DIIS
         PRECONDITIONER  FULL_ALL
       &END OT
       &OUTER_SCF  T
         EPS_SCF     9.9999999999999995E-07
       &END OUTER_SCF
       &PRINT
         &RESTART  OFF
         &END RESTART
       &END PRINT
     &END SCF
     &QS
       EPS_DEFAULT     1.0000000000000000E-10
       EXTRAPOLATION  ASPC
       METHOD  GPW
     &END QS
     &MGRID
       NGRIDS  4
       CUTOFF     3.0000000000000000E+02
       REL_CUTOFF     6.0000000000000000E+01
     &END MGRID
     &XC
       DENSITY_CUTOFF     1.0000000000000000E-10
       GRADIENT_CUTOFF     1.0000000000000000E-10
       TAU_CUTOFF     1.0000000000000000E-10
       &XC_FUNCTIONAL  NO_SHORTCUT
         &PBE  T
         &END PBE
       &END XC_FUNCTIONAL
       &VDW_POTENTIAL
         POTENTIAL_TYPE  PAIR_POTENTIAL
         &PAIR_POTENTIAL
           TYPE  DFTD3
           PARAMETER_FILE_NAME ./dftd3.dat
           REFERENCE_FUNCTIONAL PBE
           CALCULATE_C9_TERM  T
         &END PAIR_POTENTIAL
       &END VDW_POTENTIAL
     &END XC
     &POISSON
       POISSON_SOLVER  WAVELET
       PERIODIC  NONE
     &END POISSON
     &REAL_TIME_PROPAGATION
       INITIAL_WFN  SCF_WFN
     &END REAL_TIME_PROPAGATION
     &PRINT
       &MOMENTS  SILENT
         FILENAME =water_dimer_dipole.out
         PERIODIC  F
       &END MOMENTS
     &END PRINT
   &END DFT
   &SUBSYS
     &CELL
       A     1.5000000000000005E+01    0.0000000000000000E+00    0.0000000000000000E+00
       B     0.0000000000000000E+00    1.5000000000000005E+01    0.0000000000000000E+00
       C     0.0000000000000000E+00    0.0000000000000000E+00    1.5000000000000005E+01
       PERIODIC  NONE
       MULTIPLE_UNIT_CELL  1 1 1
     &END CELL
     &COORD
H    5.4827426558882513E+00    8.2886040629087248E+00    6.9666177415489310E+00
H    6.8870336258188241E+00    7.6712564304835897E+00    6.8485901018189503E+00
O    6.0020784143625230E+00    7.5242945624182838E+00    7.2603278543645891E+00
H    9.3214740883116747E+00    7.2009545597706150E+00    6.8711698176663392E+00
H    8.9087949983866750E+00    7.2647506294846371E+00    8.3274573347287415E+00
O    8.8982015884669874E+00    7.7773861281436227E+00    7.5309065504701662E+00
     &END COORD
     &VELOCITY
           1.3075854265635808E-04    1.2565670884249694E-04   -1.6805399565440811E-03
           1.0802336129709805E-04    1.1694267630535616E-03    4.0813277985036616E-04
          -1.3961517389490783E-04   -4.8898414937292471E-05    1.0072973296967667E-04
           5.5794249154785382E-04    1.3129282920866985E-03    5.2030678303543803E-04
           5.3330108635384153E-04   -1.2161958164568286E-04    2.8946491026633206E-05
           5.5825414017594827E-05   -1.0774084255141524E-04   -5.5172040517551031E-05
     &END VELOCITY
     &KIND H
       BASIS_SET DZVP-MOLOPT-SR-GTH
       POTENTIAL GTH-PBE-q1
       &POTENTIAL
 1
  0.2000000000000000E+00 2 -0.4178900440000000E+01  0.7244633100000000E+00
 0
         # Potential name:  GTH-PBE-Q1  for symbol:  H
         # Potential read from the potential filename: ./GTH_POTENTIALS
       &END POTENTIAL
     &END KIND
     &KIND C
       BASIS_SET DZVP-MOLOPT-SR-GTH
       POTENTIAL GTH-PBE-q4
     &END KIND
     &KIND O
       BASIS_SET DZVP-MOLOPT-SR-GTH
       POTENTIAL GTH-PBE-q6
       &POTENTIAL
 2 4
  0.2445543000000000E+00 2 -0.1666721480000000E+02  0.2487311320000000E+01
 2
  0.2209559200000000E+00 1  0.1833745811000000E+02
  0.2113324700000000E+00 0
         # Potential name:  GTH-PBE-Q6  for symbol:  O
         # Potential read from the potential filename: ./GTH_POTENTIALS
       &END POTENTIAL
     &END KIND
     &TOPOLOGY
       COORD_FILE_NAME water-dimer.xyz
       COORD_FILE_FORMAT  XYZ
       NUMBER_OF_ATOMS  6
       MULTIPLE_UNIT_CELL  1 1 1
       &CENTER_COORDINATES  T
       &END CENTER_COORDINATES
     &END TOPOLOGY
   &END SUBSYS
 &END FORCE_EVAL
 &EXT_RESTART
   RESTART_FILE_NAME 
   RESTART_COUNTERS  T
   RESTART_POS  T
   RESTART_VEL  T
   RESTART_RANDOMG  T
   RESTART_SHELL_POS  T
   RESTART_CORE_POS  T
   RESTART_OPTIMIZE_INPUT_VARIABLES  T
   RESTART_SHELL_VELOCITY  T
   RESTART_CORE_VELOCITY  T
   RESTART_BAROSTAT  T
   RESTART_BAROSTAT_THERMOSTAT  T
   RESTART_SHELL_THERMOSTAT  T
   RESTART_THERMOSTAT  T
   RESTART_CELL  T
   RESTART_METADYNAMICS  T
   RESTART_WALKERS  T
   RESTART_BAND  T
   RESTART_QMMM  T
   RESTART_CONSTRAINT  T
   RESTART_BSSE  T
   RESTART_DIMER  T
   RESTART_AVERAGES  T
   RESTART_RTP  T
   RESTART_PINT_POS  T
   RESTART_PINT_VEL  T
   RESTART_PINT_NOSE  T
   RESTART_PINT_GLE  T
   RESTART_HELIUM_POS  T
   RESTART_HELIUM_PERMUTATION  T
   RESTART_HELIUM_FORCE  T
   RESTART_HELIUM_RNG  T
 &END EXT_RESTART
