&GLOBAL
   PROJECT_NAME diamond_cutoff
   RUN_TYPE GEO_OPT
&END GLOBAL

&FORCE_EVAL
  METHOD QS
  STRESS_TENSOR NONE
  &DFT
      POTENTIAL_FILE_NAME GTH_POTENTIALS
      BASIS_SET_FILE_NAME BASIS_MOLOPT
      &QS 
         EPS_DEFAULT 1e-10
         EXTRAPOLATION ASPC
         METHOD GPW
      &END QS
      &MGRID
         NGRIDS 4
         CUTOFF 100
         REL_CUTOFF 60
      &END MGRID
      &SCF
          EPS_SCF 1E-6
              SCF_GUESS ATOMIC
          #  SCF_GUESS RESTART
          &OT ON
             MINIMIZER DIIS
             PRECONDITIONER FULL_KINETIC
          &END OT 
          &OUTER_SCF TRUE
             EPS_SCF 1E-6
          &END OUTER_SCF
      &END SCF
      &XC
          &XC_FUNCTIONAL PBE
          &END XC_FUNCTIONAL
      &END XC
  #    &PRINT
  #        &PDOS
  #            FILENAME ./DOS
  #          &END PDOS     
  #    &END PRINT
  &END DFT

  &SUBSYS
    &CELL
       A 3.60 0.0000 0.0000
       B 0.00000000 3.60 0.00000
       C 0.00000000 0.000000 3.60
       PERIODIC XYZ
    &END CELL
    &TOPOLOGY
      COORD_FILE_NAME diamond_fd3m.xyz
      COORD_FILE_FORMAT xyz
    &END TOPOLOGY
    &KIND C
       POTENTIAL GTH-PBE
       BASIS_SET DZVP-MOLOPT-SR-GTH
    &END KIND
  &END SUBSYS
&END FORCE_EVAL
