 # Version information for this restart file 
 # current date 2020-05-19 00:11:27.277
 # current working dir /auto.eland/home/sim03/Documents/SimPhys/Summer/2/cp2k/MONOMER_MD_TEST_100K
 # Program compiled at                             Thu May  9 16:52:28 CEST 2019
 # Program compiled on                                                      cip0
 # Program compiled for                                                     icp2
 # Source code revision number                                         svn:18091
 &GLOBAL
   PRINT_LEVEL  LOW
   PROJECT_NAME water_dimer_md
   RUN_TYPE  MD
 &END GLOBAL
 &MOTION
   &MD
     ENSEMBLE  NVT
     STEPS  2000
     TIMESTEP     4.9999999999999994E-01
     STEP_START_VAL  40
     TIME_START_VAL     2.0000000000000011E+01
     ECONS_START_VAL    -1.7218792520090950E+01
     TEMPERATURE     1.0000000000000001E+02
     COMVEL_TOL     9.9999999999999995E-07
     ANGVEL_TOL     9.9999999999999995E-07
     ANGVEL_ZERO  T
     &THERMOSTAT
       TYPE  CSVR
       REGION  GLOBAL
       &CSVR
         TIMECON     4.9999999999999993E+01
         &THERMOSTAT_ENERGY
               2.4746729417721614E-04
         &END THERMOSTAT_ENERGY
         &RNG_INIT
Wiener process for Thermostat # 1        1 F T F   1.2726117438482145E+00        4183938633.0        2584064822.0         815485170.0        3565984791.0        3330202645.0        3319958103.0             12345.0             12345.0             12345.0             12345.0             12345.0             12345.0             12345.0             12345.0             12345.0             12345.0             12345.0             12345.0
         &END RNG_INIT
       &END CSVR
     &END THERMOSTAT
     &AVERAGES  T
       &RESTART_AVERAGES
         ITIMES_START  1
         AVECPU     4.2038306731800539E+01
         AVEHUGONIOT     0.0000000000000000E+00
         AVETEMP_BARO     0.0000000000000000E+00
         AVEPOT    -1.7219301766042278E+01
         AVEKIN     3.4884385584287746E-04
         AVETEMP     7.3437363834593327E+01
         AVEKIN_QM     0.0000000000000000E+00
         AVETEMP_QM     0.0000000000000000E+00
         AVEVOL     2.2775629217928741E+04
         AVECELL_A     2.8345891993284638E+01
         AVECELL_B     2.8345891993284638E+01
         AVECELL_C     2.8345891993284638E+01
         AVEALPHA     9.0000000000000000E+01
         AVEBETA     9.0000000000000000E+01
         AVEGAMMA     9.0000000000000000E+01
         AVE_ECONS    -1.8199523753072780E-01
         AVE_PRESS     0.0000000000000000E+00
         AVE_PXX     0.0000000000000000E+00
       &END RESTART_AVERAGES
     &END AVERAGES
   &END MD
 &END MOTION
 &FORCE_EVAL
   METHOD  QS
   STRESS_TENSOR  NONE
   &DFT
     BASIS_SET_FILE_NAME ./BASIS_MOLOPT
     POTENTIAL_FILE_NAME ./GTH_POTENTIALS
     &SCF
       EPS_SCF     9.9999999999999995E-07
       SCF_GUESS  ATOMIC
       &OT  T
         MINIMIZER  DIIS
         PRECONDITIONER  FULL_ALL
       &END OT
       &OUTER_SCF  T
         EPS_SCF     9.9999999999999995E-07
       &END OUTER_SCF
       &PRINT
         &RESTART  OFF
         &END RESTART
       &END PRINT
     &END SCF
     &QS
       EPS_DEFAULT     1.0000000000000000E-10
       EXTRAPOLATION  ASPC
       METHOD  GPW
     &END QS
     &MGRID
       NGRIDS  4
       CUTOFF     3.0000000000000000E+02
       REL_CUTOFF     6.0000000000000000E+01
     &END MGRID
     &XC
       DENSITY_CUTOFF     1.0000000000000000E-10
       GRADIENT_CUTOFF     1.0000000000000000E-10
       TAU_CUTOFF     1.0000000000000000E-10
       &XC_FUNCTIONAL  NO_SHORTCUT
         &PBE  T
         &END PBE
       &END XC_FUNCTIONAL
       &VDW_POTENTIAL
         POTENTIAL_TYPE  PAIR_POTENTIAL
         &PAIR_POTENTIAL
           TYPE  DFTD3
           PARAMETER_FILE_NAME ./dftd3.dat
           REFERENCE_FUNCTIONAL PBE
           CALCULATE_C9_TERM  T
         &END PAIR_POTENTIAL
       &END VDW_POTENTIAL
     &END XC
     &POISSON
       POISSON_SOLVER  WAVELET
       PERIODIC  NONE
     &END POISSON
     &PRINT
       &MOMENTS  SILENT
         FILENAME =water_dimer_dipole.out
         PERIODIC  F
       &END MOMENTS
     &END PRINT
   &END DFT
   &SUBSYS
     &CELL
       A     1.5000000000000002E+01    0.0000000000000000E+00    0.0000000000000000E+00
       B     0.0000000000000000E+00    1.5000000000000002E+01    0.0000000000000000E+00
       C     0.0000000000000000E+00    0.0000000000000000E+00    1.5000000000000002E+01
       PERIODIC  NONE
       MULTIPLE_UNIT_CELL  1 1 1
     &END CELL
     &COORD
H    7.6505750118796740E+00    8.2771717310006050E+00    7.2885467935164545E+00
H    7.6288353102543622E+00    6.7161996643809694E+00    7.2357603828514678E+00
O    7.3497885184869256E+00    7.4894604330269283E+00    7.7588421661860920E+00
     &END COORD
     &VELOCITY
           2.1309803464366979E-04    1.0187657681705985E-04   -3.5951054954755314E-04
           1.7770977478333644E-04   -7.1445322290170578E-07   -3.0475121198433110E-04
          -2.4620349727730833E-05   -6.3730734187216873E-06    4.1847569278750910E-05
     &END VELOCITY
     &KIND H
       BASIS_SET DZVP-MOLOPT-SR-GTH
       POTENTIAL GTH-PBE-q1
       &POTENTIAL
 1
  0.2000000000000000E+00 2 -0.4178900440000000E+01  0.7244633100000000E+00
 0
         # Potential name:  GTH-PBE-Q1  for symbol:  H
         # Potential read from the potential filename: ./GTH_POTENTIALS
       &END POTENTIAL
     &END KIND
     &KIND C
       BASIS_SET DZVP-MOLOPT-SR-GTH
       POTENTIAL GTH-PBE-q4
     &END KIND
     &KIND O
       BASIS_SET DZVP-MOLOPT-SR-GTH
       POTENTIAL GTH-PBE-q6
       &POTENTIAL
 2 4
  0.2445543000000000E+00 2 -0.1666721480000000E+02  0.2487311320000000E+01
 2
  0.2209559200000000E+00 1  0.1833745811000000E+02
  0.2113324700000000E+00 0
         # Potential name:  GTH-PBE-Q6  for symbol:  O
         # Potential read from the potential filename: ./GTH_POTENTIALS
       &END POTENTIAL
     &END KIND
     &TOPOLOGY
       COORD_FILE_NAME water-monomer.xyz
       COORD_FILE_FORMAT  XYZ
       NUMBER_OF_ATOMS  3
       MULTIPLE_UNIT_CELL  1 1 1
       &CENTER_COORDINATES  T
       &END CENTER_COORDINATES
     &END TOPOLOGY
   &END SUBSYS
 &END FORCE_EVAL
