&GLOBAL
   PRINT_LEVEL LOW
   PROJECT_NAME water_dimer_md
   RUN_TYPE MD
&END GLOBAL

&MOTION
  &MD
     ENSEMBLE NVT
     STEPS 2000
     TIMESTEP [fs] 0.5
     TEMPERATURE [K] 200
     &THERMOSTAT
       TYPE CSVR
       REGION GLOBAL
       &CSVR
          TIMECON 50
       &END CSVR
     &END THERMOSTAT
     ANGVEL_ZERO .TRUE.
     ANGVEL_TOL 1.E-06
     COMVEL_TOL 1.E-06
  &END MD
&END MOTION

#&EXT_RESTART
#  RESTART_FILE_NAME water-1.restart
# RESTART_POS TRUE
#  RESTART_VEL TRUE
#&END EXT_RESTART

&FORCE_EVAL
  METHOD QS
  STRESS_TENSOR NONE
  &DFT
          # UKS TRUE
      POTENTIAL_FILE_NAME ./GTH_POTENTIALS
      BASIS_SET_FILE_NAME ./BASIS_MOLOPT
      &QS
         EPS_DEFAULT 1e-10
         EXTRAPOLATION ASPC
         METHOD GPW
      &END QS
      &MGRID
         NGRIDS 4
         CUTOFF 300
         REL_CUTOFF 60
      &END MGRID
      &SCF
          EPS_SCF 1E-6
          SCF_GUESS ATOMIC
          &OT ON
             MINIMIZER DIIS
             PRECONDITIONER FULL_ALL
          &END OT 
          &OUTER_SCF TRUE
             EPS_SCF 1E-6
          &END OUTER_SCF
          &PRINT
             &RESTART OFF
             &END RESTART
          &END PRINT
      &END SCF
      &XC
          &XC_FUNCTIONAL PBE
          &END XC_FUNCTIONAL
          &VDW_POTENTIAL
             POTENTIAL_TYPE PAIR_POTENTIAL
             &PAIR_POTENTIAL
                 TYPE DFTD3
                 CALCULATE_C9_TERM .TRUE.
                 PARAMETER_FILE_NAME ./dftd3.dat
                 REFERENCE_FUNCTIONAL PBE
             &END PAIR_POTENTIAL
          &END VDW_POTENTIAL
      &END XC
      &POISSON
         PERIODIC NONE
         POISSON_SOLVER WAVELET
      &END POISSON
      &PRINT
         &MOMENTS
            PERIODIC .FALSE.
            FILENAME =water_dimer_dipole.out
        &END MOMENTS
      &END PRINT
  &END DFT

  &SUBSYS
    &CELL
       ABC  15.0 15.0 15.0 
       PERIODIC NONE
    &END CELL
    &TOPOLOGY
      COORD_FILE_NAME water-dimer.xyz
      COORD_FILE_FORMAT xyz
      &CENTER_COORDINATES
      &END CENTER_COORDINATES
    &END TOPOLOGY
    &KIND H
      POTENTIAL GTH-PBE-q1
      BASIS_SET DZVP-MOLOPT-SR-GTH
    &END KIND
    &KIND C
      POTENTIAL GTH-PBE-q4
      BASIS_SET DZVP-MOLOPT-SR-GTH
    &END KIND
    &KIND O
      POTENTIAL GTH-PBE-q6
      BASIS_SET DZVP-MOLOPT-SR-GTH
    &END KIND
  &END SUBSYS
&END FORCE_EVAL
