 # Version information for this restart file 
 # current date 2020-05-19 10:28:04.531
 # current working dir /auto.eland/home/sim03/Documents/SimPhys/Summer/2/cp2k/DIMER_MD_TEST_200K
 # Program compiled at                             Thu May  9 16:52:28 CEST 2019
 # Program compiled on                                                      cip0
 # Program compiled for                                                     icp2
 # Source code revision number                                         svn:18091
 &GLOBAL
   PRINT_LEVEL  LOW
   PROJECT_NAME water_dimer_md
   RUN_TYPE  MD
 &END GLOBAL
 &MOTION
   &MD
     ENSEMBLE  NVT
     STEPS  2000
     TIMESTEP     4.9999999999999994E-01
     STEP_START_VAL  580
     TIME_START_VAL     2.8999999999999625E+02
     ECONS_START_VAL    -3.4444091863232799E+01
     TEMPERATURE     2.0000000000000003E+02
     COMVEL_TOL     9.9999999999999995E-07
     ANGVEL_TOL     9.9999999999999995E-07
     ANGVEL_ZERO  T
     &THERMOSTAT
       TYPE  CSVR
       REGION  GLOBAL
       &CSVR
         TIMECON     4.9999999999999993E+01
         &THERMOSTAT_ENERGY
              -4.3293568323209495E-03
         &END THERMOSTAT_ENERGY
         &RNG_INIT
Wiener process for Thermostat # 1        1 F T F  -6.8344100011804476E-01        3724408930.0        3417396966.0        3871593292.0         861519235.0        1785650933.0         854577824.0             12345.0             12345.0             12345.0             12345.0             12345.0             12345.0             12345.0             12345.0             12345.0             12345.0             12345.0             12345.0
         &END RNG_INIT
       &END CSVR
     &END THERMOSTAT
     &AVERAGES  T
       &RESTART_AVERAGES
         ITIMES_START  1
         AVECPU     6.6832452143905329E+01
         AVEHUGONIOT     0.0000000000000000E+00
         AVETEMP_BARO     0.0000000000000000E+00
         AVEPOT    -3.4444678817436206E+01
         AVEKIN     4.0207305821178515E-03
         AVETEMP     2.1160746398014439E+02
         AVEKIN_QM     0.0000000000000000E+00
         AVETEMP_QM     0.0000000000000000E+00
         AVEVOL     2.2775629217928727E+04
         AVECELL_A     2.8345891993285026E+01
         AVECELL_B     2.8345891993285026E+01
         AVECELL_C     2.8345891993285026E+01
         AVEALPHA     9.0000000000000014E+01
         AVEBETA     9.0000000000000014E+01
         AVEGAMMA     9.0000000000000014E+01
         AVE_ECONS    -1.5636140012670152E+00
         AVE_PRESS     0.0000000000000000E+00
         AVE_PXX     0.0000000000000000E+00
       &END RESTART_AVERAGES
     &END AVERAGES
   &END MD
 &END MOTION
 &FORCE_EVAL
   METHOD  QS
   STRESS_TENSOR  NONE
   &DFT
     BASIS_SET_FILE_NAME ./BASIS_MOLOPT
     POTENTIAL_FILE_NAME ./GTH_POTENTIALS
     &SCF
       EPS_SCF     9.9999999999999995E-07
       SCF_GUESS  ATOMIC
       &OT  T
         MINIMIZER  DIIS
         PRECONDITIONER  FULL_ALL
       &END OT
       &OUTER_SCF  T
         EPS_SCF     9.9999999999999995E-07
       &END OUTER_SCF
       &PRINT
         &RESTART  OFF
         &END RESTART
       &END PRINT
     &END SCF
     &QS
       EPS_DEFAULT     1.0000000000000000E-10
       EXTRAPOLATION  ASPC
       METHOD  GPW
     &END QS
     &MGRID
       NGRIDS  4
       CUTOFF     3.0000000000000000E+02
       REL_CUTOFF     6.0000000000000000E+01
     &END MGRID
     &XC
       DENSITY_CUTOFF     1.0000000000000000E-10
       GRADIENT_CUTOFF     1.0000000000000000E-10
       TAU_CUTOFF     1.0000000000000000E-10
       &XC_FUNCTIONAL  NO_SHORTCUT
         &PBE  T
         &END PBE
       &END XC_FUNCTIONAL
       &VDW_POTENTIAL
         POTENTIAL_TYPE  PAIR_POTENTIAL
         &PAIR_POTENTIAL
           TYPE  DFTD3
           PARAMETER_FILE_NAME ./dftd3.dat
           REFERENCE_FUNCTIONAL PBE
           CALCULATE_C9_TERM  T
         &END PAIR_POTENTIAL
       &END VDW_POTENTIAL
     &END XC
     &POISSON
       POISSON_SOLVER  WAVELET
       PERIODIC  NONE
     &END POISSON
     &PRINT
       &MOMENTS  SILENT
         FILENAME =water_dimer_dipole.out
         PERIODIC  F
       &END MOMENTS
     &END PRINT
   &END DFT
   &SUBSYS
     &CELL
       A     1.5000000000000002E+01    0.0000000000000000E+00    0.0000000000000000E+00
       B     0.0000000000000000E+00    1.5000000000000002E+01    0.0000000000000000E+00
       C     0.0000000000000000E+00    0.0000000000000000E+00    1.5000000000000002E+01
       PERIODIC  NONE
       MULTIPLE_UNIT_CELL  1 1 1
     &END CELL
     &COORD
H    5.6307310936293087E+00    7.3229758097957953E+00    6.4846305277068534E+00
H    5.7455169529050574E+00    6.9124148916703820E+00    7.9503019777240391E+00
O    6.0993250852738150E+00    7.5228425544144040E+00    7.2907794100615257E+00
H    9.7333040093187240E+00    7.9517257503296186E+00    6.8398954926670399E+00
H    8.2791389704689511E+00    7.4673277106046898E+00    6.9428680638913889E+00
O    9.1247351350359516E+00    7.4810817089038890E+00    7.4233774540282083E+00
     &END COORD
     &VELOCITY
           3.0894302890094246E-04   -1.8766675299567269E-04    3.4100226348184862E-04
          -4.1198523347555467E-04   -3.1312296720369050E-04   -9.4608736476633961E-04
          -7.2424726120887264E-05    2.5666855339714388E-05    1.4802846798652000E-05
          -8.6401492707479201E-04   -3.8211692831177565E-04   -1.2793387278415491E-03
          -6.7912311536437626E-04    6.0139766006127152E-04    4.7691041922096126E-05
           1.7613179752200668E-04   -7.9321796757420323E-06    1.0090877023288315E-04
     &END VELOCITY
     &KIND H
       BASIS_SET DZVP-MOLOPT-SR-GTH
       POTENTIAL GTH-PBE-q1
       &POTENTIAL
 1
  0.2000000000000000E+00 2 -0.4178900440000000E+01  0.7244633100000000E+00
 0
         # Potential name:  GTH-PBE-Q1  for symbol:  H
         # Potential read from the potential filename: ./GTH_POTENTIALS
       &END POTENTIAL
     &END KIND
     &KIND C
       BASIS_SET DZVP-MOLOPT-SR-GTH
       POTENTIAL GTH-PBE-q4
     &END KIND
     &KIND O
       BASIS_SET DZVP-MOLOPT-SR-GTH
       POTENTIAL GTH-PBE-q6
       &POTENTIAL
 2 4
  0.2445543000000000E+00 2 -0.1666721480000000E+02  0.2487311320000000E+01
 2
  0.2209559200000000E+00 1  0.1833745811000000E+02
  0.2113324700000000E+00 0
         # Potential name:  GTH-PBE-Q6  for symbol:  O
         # Potential read from the potential filename: ./GTH_POTENTIALS
       &END POTENTIAL
     &END KIND
     &TOPOLOGY
       COORD_FILE_NAME water-dimer.xyz
       COORD_FILE_FORMAT  XYZ
       NUMBER_OF_ATOMS  6
       MULTIPLE_UNIT_CELL  1 1 1
       &CENTER_COORDINATES  T
       &END CENTER_COORDINATES
     &END TOPOLOGY
   &END SUBSYS
 &END FORCE_EVAL
